============================[ Problem Statistics ]=============================|                                                                             ||  Number of variables:          4242                                         ||  Number of clauses:           10336                                         ||  Parse time:                   0.72 s                                       ||                                                                             |============================[ Search Statistics ]==============================| Conflicts |          ORIGINAL         |          LEARNT          | Progress ||           |    Vars  Clauses Literals |    Limit  Clauses Lit/Cl |          |===============================================================================|       100 |    1591     6541  1154132 |     2398      100     53 | 62.501 % ||       250 |    1591     6541  1154132 |     2638      250     75 | 62.495 % |===============================================================================restarts              : 3conflicts             : 392            (360 /sec)decisions             : 655            (0.00 % random) (601 /sec)propagations          : 12038          (11054 /sec)conflict literals     : 32427          (94.56 % deleted)CPU time              : 1.089 sSATISFIABLE